\ LP format - for model browsing. Use MPS format to capture full model detail.
Minimize
  0 B12(0) + 0 B19(0) + 0 B24(0) + 0 B25(0) + 0 B26(0) + 0 B30(0) + 0 B31(0)
   + 0 B33(0) + 0 B36(0) + 0 B37(0) + 0 B38(0) + 0 B39(0) + 0 B40(0)
   + 0 B42(0) + 0 B43(0) + 0 B44(0) + 0 B45(0) + 0 B47(0) + I60(1)
Subject To
 c0: B0(16) + B1(16) = 1
 c1: B2(16) + B3(16) = 1
 c2: B4(16) + B5(16) = 1
 c3: B6(16) + B7(16) = 1
 c4: B8(16) + B9(16) = 1
 c5: B10(16) + B11(16) = 1
 c6: - 1e+06 B0(16) + C48(18) <= 0
 c7: - 1e+06 B1(16) + C49(18) <= 0
 c8: - 1e+06 B2(16) + C50(16) <= 0
 c9: - 1e+06 B3(16) + C51(16) <= 0
 c10: - 1e+06 B4(16) + C52(18) <= 0
 c11: - 1e+06 B5(16) + C53(18) <= 0
 c12: - 1e+06 B6(16) + C54(16) <= 0
 c13: - 1e+06 B7(16) + C55(16) <= 0
 c14: - 1e+06 B8(16) + C56(18) <= 0
 c15: - 1e+06 B9(16) + C57(18) <= 0
 c16: - 1e+06 B10(16) + C58(16) <= 0
 c17: - 1e+06 B11(16) + C59(16) <= 0
 c18: - 1e+06 B0(16) - 1e+06 B2(16) - 1e+06 B13(4) + C48(18) - C50(16)
   >= -2.999876e+06
 c19: - 1e+06 B0(16) - 1e+06 B2(16) + 1e+06 B13(4) - C48(18) + C50(16)
   >= -1.999777e+06
 c20: - 1e+06 B1(16) - 1e+06 B3(16) - 1e+06 B13(4) + C49(18) - C51(16)
   >= -2.9999e+06
 c21: - 1e+06 B1(16) - 1e+06 B3(16) + 1e+06 B13(4) - C49(18) + C51(16)
   >= -1.999745e+06
 c22: - 1e+06 B0(16) - 1e+06 B4(16) - 1e+06 B14(4) + C48(18) - C52(18)
   >= -2.999904e+06
 c23: - 1e+06 B0(16) - 1e+06 B4(16) + 1e+06 B14(4) - C48(18) + C52(18)
   >= -1.999783e+06
 c24: - 1e+06 B1(16) - 1e+06 B5(16) - 1e+06 B14(4) + C49(18) - C53(18)
   >= -2.999811e+06
 c25: - 1e+06 B1(16) - 1e+06 B5(16) + 1e+06 B14(4) - C49(18) + C53(18)
   >= -1.999755e+06
 c26: - 1e+06 B0(16) - 1e+06 B6(16) - 1e+06 B15(4) + C48(18) - C54(16)
   >= -2.999768e+06
 c27: - 1e+06 B0(16) - 1e+06 B6(16) + 1e+06 B15(4) - C48(18) + C54(16)
   >= -1.99983e+06
 c28: - 1e+06 B1(16) - 1e+06 B7(16) - 1e+06 B15(4) + C49(18) - C55(16)
   >= -2.999891e+06
 c29: - 1e+06 B1(16) - 1e+06 B7(16) + 1e+06 B15(4) - C49(18) + C55(16)
   >= -1.999851e+06
 c30: - 1e+06 B0(16) - 1e+06 B8(16) - 1e+06 B16(4) + C48(18) - C56(18)
   >= -2.999804e+06
 c31: - 1e+06 B0(16) - 1e+06 B8(16) + 1e+06 B16(4) - C48(18) + C56(18)
   >= -1.999798e+06
 c32: - 1e+06 B1(16) - 1e+06 B9(16) - 1e+06 B16(4) + C49(18) - C57(18)
   >= -2.999937e+06
 c33: - 1e+06 B1(16) - 1e+06 B9(16) + 1e+06 B16(4) - C49(18) + C57(18)
   >= -1.999869e+06
 c34: - 1e+06 B0(16) - 1e+06 B10(16) - 1e+06 B17(4) + C48(18) - C58(16)
   >= -2.999901e+06
 c35: - 1e+06 B0(16) - 1e+06 B10(16) + 1e+06 B17(4) - C48(18) + C58(16)
   >= -1.999771e+06
 c36: - 1e+06 B1(16) - 1e+06 B11(16) - 1e+06 B17(4) + C49(18) - C59(16)
   >= -2.999785e+06
 c37: - 1e+06 B1(16) - 1e+06 B11(16) + 1e+06 B17(4) - C49(18) + C59(16)
   >= -1.999779e+06
 c38: - 1e+06 B0(16) - 1e+06 B2(16) - 1e+06 B18(4) - C48(18) + C50(16)
   >= -2.999777e+06
 c39: - 1e+06 B0(16) - 1e+06 B2(16) + 1e+06 B18(4) + C48(18) - C50(16)
   >= -1.999876e+06
 c40: - 1e+06 B1(16) - 1e+06 B3(16) - 1e+06 B18(4) - C49(18) + C51(16)
   >= -2.999745e+06
 c41: - 1e+06 B1(16) - 1e+06 B3(16) + 1e+06 B18(4) + C49(18) - C51(16)
   >= -1.9999e+06
 c42: - 1e+06 B2(16) - 1e+06 B4(16) - 1e+06 B20(4) + C50(16) - C52(18)
   >= -2.99983e+06
 c43: - 1e+06 B2(16) - 1e+06 B4(16) + 1e+06 B20(4) - C50(16) + C52(18)
   >= -1.999813e+06
 c44: - 1e+06 B3(16) - 1e+06 B5(16) - 1e+06 B20(4) + C51(16) - C53(18)
   >= -2.999781e+06
 c45: - 1e+06 B3(16) - 1e+06 B5(16) + 1e+06 B20(4) - C51(16) + C53(18)
   >= -1.999784e+06
 c46: - 1e+06 B2(16) - 1e+06 B6(16) - 1e+06 B21(4) + C50(16) - C54(16)
   >= -2.999801e+06
 c47: - 1e+06 B2(16) - 1e+06 B6(16) + 1e+06 B21(4) - C50(16) + C54(16)
   >= -1.999845e+06
 c48: - 1e+06 B3(16) - 1e+06 B7(16) - 1e+06 B21(4) + C51(16) - C55(16)
   >= -2.999829e+06
 c49: - 1e+06 B3(16) - 1e+06 B7(16) + 1e+06 B21(4) - C51(16) + C55(16)
   >= -1.999768e+06
 c50: - 1e+06 B2(16) - 1e+06 B8(16) - 1e+06 B22(4) + C50(16) - C56(18)
   >= -2.999897e+06
 c51: - 1e+06 B2(16) - 1e+06 B8(16) + 1e+06 B22(4) - C50(16) + C56(18)
   >= -1.999772e+06
 c52: - 1e+06 B3(16) - 1e+06 B9(16) - 1e+06 B22(4) + C51(16) - C57(18)
   >= -2.999937e+06
 c53: - 1e+06 B3(16) - 1e+06 B9(16) + 1e+06 B22(4) - C51(16) + C57(18)
   >= -1.999908e+06
 c54: - 1e+06 B2(16) - 1e+06 B10(16) - 1e+06 B23(4) + C50(16) - C58(16)
   >= -2.999927e+06
 c55: - 1e+06 B2(16) - 1e+06 B10(16) + 1e+06 B23(4) - C50(16) + C58(16)
   >= -1.999931e+06
 c56: - 1e+06 B3(16) - 1e+06 B11(16) - 1e+06 B23(4) + C51(16) - C59(16)
   >= -2.99966e+06
 c57: - 1e+06 B3(16) - 1e+06 B11(16) + 1e+06 B23(4) - C51(16) + C59(16)
   >= -1.9997e+06
 c58: - 1e+06 B4(16) - 1e+06 B6(16) - 1e+06 B27(4) + C52(18) - C54(16)
   >= -2.999676e+06
 c59: - 1e+06 B4(16) - 1e+06 B6(16) + 1e+06 B27(4) - C52(18) + C54(16)
   >= -1.999904e+06
 c60: - 1e+06 B5(16) - 1e+06 B7(16) - 1e+06 B27(4) + C53(18) - C55(16)
   >= -2.9998e+06
 c61: - 1e+06 B5(16) - 1e+06 B7(16) + 1e+06 B27(4) - C53(18) + C55(16)
   >= -1.999734e+06
 c62: - 1e+06 B4(16) - 1e+06 B8(16) - 1e+06 B28(4) + C52(18) - C56(18)
   >= -2.999637e+06
 c63: - 1e+06 B4(16) - 1e+06 B8(16) + 1e+06 B28(4) - C52(18) + C56(18)
   >= -1.999938e+06
 c64: - 1e+06 B5(16) - 1e+06 B9(16) - 1e+06 B28(4) + C53(18) - C57(18)
   >= -2.999699e+06
 c65: - 1e+06 B5(16) - 1e+06 B9(16) + 1e+06 B28(4) - C53(18) + C57(18)
   >= -1.99982e+06
 c66: - 1e+06 B4(16) - 1e+06 B10(16) - 1e+06 B29(4) + C52(18) - C58(16)
   >= -2.99988e+06
 c67: - 1e+06 B4(16) - 1e+06 B10(16) + 1e+06 B29(4) - C52(18) + C58(16)
   >= -1.999856e+06
 c68: - 1e+06 B5(16) - 1e+06 B11(16) - 1e+06 B29(4) + C53(18) - C59(16)
   >= -2.999921e+06
 c69: - 1e+06 B5(16) - 1e+06 B11(16) + 1e+06 B29(4) - C53(18) + C59(16)
   >= -1.999811e+06
 c70: - 1e+06 B4(16) - 1e+06 B6(16) - 1e+06 B32(4) - C52(18) + C54(16)
   >= -2.999904e+06
 c71: - 1e+06 B4(16) - 1e+06 B6(16) + 1e+06 B32(4) + C52(18) - C54(16)
   >= -1.999676e+06
 c72: - 1e+06 B5(16) - 1e+06 B7(16) - 1e+06 B32(4) - C53(18) + C55(16)
   >= -2.999734e+06
 c73: - 1e+06 B5(16) - 1e+06 B7(16) + 1e+06 B32(4) + C53(18) - C55(16)
   >= -1.9998e+06
 c74: - 1e+06 B6(16) - 1e+06 B8(16) - 1e+06 B34(4) + C54(16) - C56(18)
   >= -2.999767e+06
 c75: - 1e+06 B6(16) - 1e+06 B8(16) + 1e+06 B34(4) - C54(16) + C56(18)
   >= -1.999786e+06
 c76: - 1e+06 B7(16) - 1e+06 B9(16) - 1e+06 B34(4) + C55(16) - C57(18)
   >= -2.999783e+06
 c77: - 1e+06 B7(16) - 1e+06 B9(16) + 1e+06 B34(4) - C55(16) + C57(18)
   >= -1.999851e+06
 c78: - 1e+06 B6(16) - 1e+06 B10(16) - 1e+06 B35(4) + C54(16) - C58(16)
   >= -2.999895e+06
 c79: - 1e+06 B6(16) - 1e+06 B10(16) + 1e+06 B35(4) - C54(16) + C58(16)
   >= -1.999902e+06
 c80: - 1e+06 B7(16) - 1e+06 B11(16) - 1e+06 B35(4) + C55(16) - C59(16)
   >= -2.999877e+06
 c81: - 1e+06 B7(16) - 1e+06 B11(16) + 1e+06 B35(4) - C55(16) + C59(16)
   >= -1.999887e+06
 c82: - 1e+06 B8(16) - 1e+06 B10(16) - 1e+06 B41(4) + C56(18) - C58(16)
   >= -2.999895e+06
 c83: - 1e+06 B8(16) - 1e+06 B10(16) + 1e+06 B41(4) - C56(18) + C58(16)
   >= -1.999767e+06
 c84: - 1e+06 B9(16) - 1e+06 B11(16) - 1e+06 B41(4) + C57(18) - C59(16)
   >= -2.999869e+06
 c85: - 1e+06 B9(16) - 1e+06 B11(16) + 1e+06 B41(4) - C57(18) + C59(16)
   >= -1.999755e+06
 c86: - 1e+06 B8(16) - 1e+06 B10(16) - 1e+06 B46(4) - C56(18) + C58(16)
   >= -2.999767e+06
 c87: - 1e+06 B8(16) - 1e+06 B10(16) + 1e+06 B46(4) + C56(18) - C58(16)
   >= -1.999895e+06
 c88: - 1e+06 B9(16) - 1e+06 B11(16) - 1e+06 B46(4) - C57(18) + C59(16)
   >= -2.999755e+06
 c89: - 1e+06 B9(16) - 1e+06 B11(16) + 1e+06 B46(4) + C57(18) - C59(16)
   >= -1.999869e+06
 c90: C48(18) >= 0
 c91: C49(18) >= 0
 c92: C50(16) >= 0
 c93: - 480 B2(16) + C50(16) >= 0
 c94: C51(16) >= 0
 c95: - 480 B3(16) + C51(16) >= 0
 c96: C52(18) >= 0
 c97: C53(18) >= 0
 c98: C54(16) >= 0
 c99: - 480 B6(16) + C54(16) >= 0
 c100: C55(16) >= 0
 c101: - 480 B7(16) + C55(16) >= 0
 c102: C56(18) >= 0
 c103: C57(18) >= 0
 c104: C58(16) >= 0
 c105: - 480 B10(16) + C58(16) >= 0
 c106: C59(16) >= 0
 c107: - 480 B11(16) + C59(16) >= 0
 c108: - 43 B2(16) - 36 B3(16) + C48(18) + C49(18) - C50(16) - C51(16)
   >= 0
 c109: - 34 B6(16) - 53 B7(16) + C52(18) + C53(18) - C54(16) - C55(16)
   >= 0
 c110: - 21 B10(16) - 35 B11(16) + C56(18) + C57(18) - C58(16) - C59(16)
   >= 0
 c111: 64 B0(16) + C48(18) - 1e+06 B61(4) >= -999520
 c112: 64 B0(16) + C48(18) - 1e+06 B61(4) <= 480
 c113: 71 B1(16) + C49(18) - 1e+06 B62(4) >= -999520
 c114: 71 B1(16) + C49(18) - 1e+06 B62(4) <= 480
 c115: 36 B4(16) + C52(18) - 1e+06 B63(4) >= -999520
 c116: 36 B4(16) + C52(18) - 1e+06 B63(4) <= 480
 c117: 21 B5(16) + C53(18) - 1e+06 B64(4) >= -999520
 c118: 21 B5(16) + C53(18) - 1e+06 B64(4) <= 480
 c119: 43 B8(16) + C56(18) - 1e+06 B65(4) >= -999520
 c120: 43 B8(16) + C56(18) - 1e+06 B65(4) <= 480
 c121: 37 B9(16) + C57(18) - 1e+06 B66(4) >= -999520
 c122: 37 B9(16) + C57(18) - 1e+06 B66(4) <= 480
 qc0: I60(1) + 416 B61(4) + 409 B62(4) + 444 B63(4) + 459 B64(4)
   + 437 B65(4) + 443 B66(4) + [ - C48(18) * B61(4) - C49(18) * B62(4)
   - C52(18) * B63(4) - C53(18) * B64(4) - C56(18) * B65(4)
   - C57(18) * B66(4) ] >= 0
Bounds
Binaries
 B0(16) B1(16) B2(16) B3(16) B4(16) B5(16) B6(16) B7(16) B8(16) B9(16)
 B10(16) B11(16) B12(0) B13(4) B14(4) B15(4) B16(4) B17(4) B18(4) B19(0)
 B20(4) B21(4) B22(4) B23(4) B24(0) B25(0) B26(0) B27(4) B28(4) B29(4)
 B30(0) B31(0) B32(4) B33(0) B34(4) B35(4) B36(0) B37(0) B38(0) B39(0)
 B40(0) B41(4) B42(0) B43(0) B44(0) B45(0) B46(4) B47(0) B61(4) B62(4)
 B63(4) B64(4) B65(4) B66(4)
Generals
 I60(1)
End
